
  17    4
  10   10   10   10

   0   0   0   0   0   5 2 3 4 5 6 
   3  10  10  10  10   4 16 9 8 7 
   7  10  10  10  10   3 16 12 7 
   8  10  10  10  10   2 9 7 
   4  10  10  10  10   2 12 7 
   1  10  10  10  10   5 15 14 13 12 11 
   2  10  10  10  10   4 15 14 13 10 
   2  10  10  10  10   4 15 14 12 10 
   5  10  10  10  10   3 13 12 11 
   4  10  10  10  10   1 11 
   2  10  10  10  10   1 17
   3  10  10  10  10   1 17
   8  10  10  10  10   1 17
   3  10  10  10  10   1 17
   6  10  10  10  10   1 17
   2  10  10  10  10   1 17
   0   0   0   0   0   0 
